6 15
1 2 28
1 3 33
1 4 30
1 5 25
1 6 42
2 3 18
2 4 26
2 5 33
2 6 30
3 4 12
3 5 23
3 6 12
4 5 12
4 6 13
5 6 25

9 13
1 2 7
1 3 4
2 4 6
2 5 2
3 5 3
3 6 10
4 5 8
4 7 11
5 8 5
6 8 13
7 8 12
7 9 9
8 9 1

4 6
1 2 10
1 3 15
1 4 20
2 3 35
2 4 25
3 4 30

3 3
1 2 1
1 3 1
2 3 1